c Sudoku solution
p cnf 729 0
111 0
149 0
228 0
257 0
274 0
314 0
335 0
362 0
493 0
519 0
553 0
566 0
587 0
651 0
689 0
742 0
452 0
469 0
754 0
164 0
812 0
834 0
845 0
665 0
155 0
861 0
263 0
216 0
241 0
943 0
346 0
358 0
898 0
977 0
827 0
767 0
968 0
915 0
137 0
397 0
982 0
994 0
285 0
484 0
188 0
718 0
613 0
417 0
448 0
647 0
544 0
624 0
733 0
678 0
538 0
795 0
591 0
299 0
232 0
123 0
329 0
522 0
636 0
425 0
431 0
476 0
575 0
692 0
779 0
781 0
726 0
859 0
956 0
921 0
939 0
371 0
383 0
172 0
196 0
873 0
886 0
